65
1 0 6
2 0 8
2 1 10
3 0 6
3 1 3
3 2 10
4 0 10
4 1 5
4 2 10
4 3 3
5 0 10
5 1 9
5 2 2
5 3 1
5 4 9
6 0 8
6 1 2
6 2 3
6 3 3
6 4 4
6 5 10
7 0 10
7 1 2
7 2 1
7 3 9
7 4 7
7 5 5
7 6 2
8 0 1
8 1 8
8 2 5
8 3 6
8 4 10
8 5 10
8 6 10
8 7 4
9 0 4
9 1 4
9 2 2
9 3 5
9 4 3
9 5 10
9 6 3
9 7 9
9 8 3
10 0 8
10 1 10
10 2 4
10 3 4
10 4 2
10 5 7
10 6 10
10 7 7
10 8 8
10 9 4
11 0 7
11 1 8
11 2 8
11 3 1
11 4 5
11 5 3
11 6 5
11 7 5
11 8 8
11 9 5
11 10 9
12 0 7
12 1 5
12 2 3
12 3 3
12 4 7
12 5 1
12 6 5
12 7 1
12 8 6
12 9 4
12 10 8
12 11 1
13 0 2
13 1 2
13 2 5
13 3 10
13 4 6
13 5 10
13 6 3
13 7 3
13 8 10
13 9 1
13 10 5
13 11 7
13 12 6
14 0 10
14 1 6
14 2 9
14 3 5
14 4 1
14 5 5
14 6 5
14 7 1
14 8 5
14 9 2
14 10 5
14 11 10
14 12 10
14 13 7
15 0 7
15 1 7
15 2 4
15 3 3
15 4 1
15 5 10
15 6 4
15 7 3
15 8 10
15 9 1
15 10 9
15 11 3
15 12 5
15 13 6
15 14 8
16 0 1
16 1 3
16 2 1
16 3 5
16 4 3
16 5 2
16 6 6
16 7 1
16 8 5
16 9 10
16 10 9
16 11 5
16 12 4
16 13 5
16 14 7
16 15 8
17 0 5
17 1 7
17 2 10
17 3 6
17 4 10
17 5 7
17 6 4
17 7 3
17 8 1
17 9 4
17 10 9
17 11 10
17 12 10
17 13 9
17 14 9
17 15 2
17 16 9
18 0 2
18 1 5
18 2 5
18 3 5
18 4 2
18 5 5
18 6 4
18 7 7
18 8 5
18 9 3
18 10 4
18 11 5
18 12 1
18 13 4
18 14 7
18 15 2
18 16 10
18 17 3
19 0 6
19 1 10
19 2 9
19 3 7
19 4 8
19 5 2
19 6 8
19 7 2
19 8 3
19 9 10
19 10 1
19 11 1
19 12 7
19 13 3
19 14 7
19 15 1
19 16 8
19 17 2
19 18 7
20 0 3
20 1 9
20 2 2
20 3 10
20 4 8
20 5 2
20 6 5
20 7 8
20 8 3
20 9 8
20 10 4
20 11 2
20 12 9
20 13 2
20 14 2
20 15 3
20 16 5
20 17 9
20 18 5
20 19 7
21 0 3
21 1 8
21 2 7
21 3 8
21 4 4
21 5 9
21 6 5
21 7 3
21 8 5
21 9 7
21 10 5
21 11 3
21 12 10
21 13 3
21 14 3
21 15 2
21 16 3
21 17 1
21 18 9
21 19 4
21 20 4
22 0 6
22 1 1
22 2 6
22 3 1
22 4 2
22 5 8
22 6 4
22 7 5
22 8 1
22 9 5
22 10 9
22 11 1
22 12 8
22 13 3
22 14 10
22 15 7
22 16 8
22 17 3
22 18 10
22 19 7
22 20 4
22 21 7
23 0 7
23 1 9
23 2 4
23 3 2
23 4 10
23 5 9
23 6 8
23 7 3
23 8 10
23 9 3
23 10 3
23 11 4
23 12 9
23 13 9
23 14 5
23 15 7
23 16 1
23 17 6
23 18 6
23 19 9
23 20 8
23 21 5
23 22 5
24 0 6
24 1 5
24 2 1
24 3 4
24 4 6
24 5 10
24 6 6
24 7 4
24 8 8
24 9 5
24 10 5
24 11 6
24 12 4
24 13 2
24 14 9
24 15 8
24 16 6
24 17 7
24 18 9
24 19 5
24 20 7
24 21 5
24 22 10
24 23 6
25 0 1
25 1 9
25 2 5
25 3 1
25 4 3
25 5 9
25 6 6
25 7 2
25 8 2
25 9 9
25 10 6
25 11 1
25 12 5
25 13 9
25 14 4
25 15 4
25 16 1
25 17 6
25 18 8
25 19 2
25 20 6
25 21 6
25 22 6
25 23 3
25 24 7
26 0 8
26 1 8
26 2 9
26 3 5
26 4 10
26 5 2
26 6 9
26 7 5
26 8 9
26 9 8
26 10 7
26 11 9
26 12 1
26 13 4
26 14 8
26 15 1
26 16 8
26 17 1
26 18 1
26 19 9
26 20 10
26 21 2
26 22 8
26 23 10
26 24 1
26 25 10
27 0 1
27 1 10
27 2 3
27 3 3
27 4 2
27 5 5
27 6 5
27 7 6
27 8 5
27 9 1
27 10 2
27 11 5
27 12 3
27 13 5
27 14 3
27 15 2
27 16 8
27 17 8
27 18 3
27 19 9
27 20 2
27 21 8
27 22 2
27 23 1
27 24 7
27 25 9
27 26 8
28 0 9
28 1 8
28 2 1
28 3 2
28 4 10
28 5 5
28 6 7
28 7 8
28 8 10
28 9 4
28 10 7
28 11 1
28 12 5
28 13 8
28 14 7
28 15 4
28 16 3
28 17 5
28 18 1
28 19 6
28 20 6
28 21 2
28 22 6
28 23 7
28 24 7
28 25 7
28 26 10
28 27 9
29 0 1
29 1 8
29 2 1
29 3 7
29 4 2
29 5 9
29 6 3
29 7 8
29 8 1
29 9 4
29 10 10
29 11 7
29 12 6
29 13 6
29 14 9
29 15 4
29 16 5
29 17 7
29 18 4
29 19 8
29 20 10
29 21 4
29 22 9
29 23 5
29 24 9
29 25 6
29 26 4
29 27 9
29 28 4
30 0 5
30 1 7
30 2 1
30 3 9
30 4 3
30 5 2
30 6 9
30 7 7
30 8 4
30 9 10
30 10 9
30 11 3
30 12 7
30 13 1
30 14 9
30 15 7
30 16 6
30 17 2
30 18 1
30 19 8
30 20 6
30 21 9
30 22 4
30 23 7
30 24 4
30 25 9
30 26 7
30 27 4
30 28 8
30 29 8
31 0 1
31 1 1
31 2 8
31 3 3
31 4 6
31 5 9
31 6 4
31 7 1
31 8 1
31 9 3
31 10 10
31 11 1
31 12 10
31 13 3
31 14 1
31 15 9
31 16 1
31 17 4
31 18 5
31 19 7
31 20 3
31 21 4
31 22 4
31 23 5
31 24 5
31 25 9
31 26 1
31 27 4
31 28 9
31 29 6
31 30 6
32 0 4
32 1 5
32 2 3
32 3 7
32 4 8
32 5 10
32 6 8
32 7 4
32 8 7
32 9 9
32 10 7
32 11 4
32 12 5
32 13 5
32 14 7
32 15 9
32 16 5
32 17 3
32 18 2
32 19 1
32 20 5
32 21 9
32 22 2
32 23 9
32 24 9
32 25 10
32 26 6
32 27 5
32 28 9
32 29 5
32 30 6
32 31 8
33 0 4
33 1 6
33 2 1
33 3 1
33 4 4
33 5 8
33 6 8
33 7 4
33 8 9
33 9 3
33 10 6
33 11 7
33 12 5
33 13 2
33 14 8
33 15 9
33 16 1
33 17 2
33 18 1
33 19 7
33 20 5
33 21 10
33 22 10
33 23 4
33 24 4
33 25 5
33 26 1
33 27 3
33 28 2
33 29 10
33 30 6
33 31 6
33 32 10
34 0 10
34 1 9
34 2 6
34 3 3
34 4 10
34 5 9
34 6 5
34 7 5
34 8 6
34 9 5
34 10 5
34 11 5
34 12 6
34 13 8
34 14 4
34 15 10
34 16 2
34 17 4
34 18 10
34 19 7
34 20 1
34 21 1
34 22 2
34 23 4
34 24 2
34 25 1
34 26 6
34 27 8
34 28 1
34 29 10
34 30 2
34 31 3
34 32 10
34 33 2
35 0 4
35 1 2
35 2 1
35 3 8
35 4 5
35 5 8
35 6 5
35 7 7
35 8 5
35 9 8
35 10 1
35 11 1
35 12 1
35 13 7
35 14 4
35 15 6
35 16 10
35 17 4
35 18 8
35 19 2
35 20 5
35 21 6
35 22 1
35 23 5
35 24 1
35 25 8
35 26 6
35 27 2
35 28 3
35 29 6
35 30 3
35 31 10
35 32 9
35 33 6
35 34 2
36 0 6
36 1 7
36 2 10
36 3 1
36 4 10
36 5 4
36 6 7
36 7 10
36 8 1
36 9 1
36 10 1
36 11 8
36 12 2
36 13 9
36 14 10
36 15 2
36 16 9
36 17 3
36 18 9
36 19 2
36 20 10
36 21 5
36 22 2
36 23 4
36 24 4
36 25 9
36 26 7
36 27 8
36 28 10
36 29 5
36 30 7
36 31 4
36 32 9
36 33 5
36 34 9
36 35 4
37 0 9
37 1 1
37 2 2
37 3 2
37 4 10
37 5 4
37 6 5
37 7 3
37 8 8
37 9 10
37 10 1
37 11 8
37 12 9
37 13 7
37 14 10
37 15 2
37 16 7
37 17 10
37 18 8
37 19 10
37 20 9
37 21 6
37 22 5
37 23 7
37 24 10
37 25 4
37 26 9
37 27 5
37 28 5
37 29 2
37 30 7
37 31 6
37 32 1
37 33 2
37 34 1
37 35 3
37 36 10
38 0 3
38 1 4
38 2 7
38 3 9
38 4 5
38 5 9
38 6 8
38 7 10
38 8 10
38 9 8
38 10 8
38 11 2
38 12 7
38 13 3
38 14 10
38 15 6
38 16 2
38 17 3
38 18 1
38 19 7
38 20 3
38 21 3
38 22 1
38 23 6
38 24 9
38 25 9
38 26 7
38 27 9
38 28 3
38 29 8
38 30 2
38 31 8
38 32 10
38 33 3
38 34 9
38 35 8
38 36 8
38 37 9
39 0 7
39 1 7
39 2 6
39 3 9
39 4 1
39 5 1
39 6 9
39 7 3
39 8 5
39 9 1
39 10 7
39 11 1
39 12 2
39 13 5
39 14 7
39 15 1
39 16 9
39 17 3
39 18 7
39 19 4
39 20 8
39 21 6
39 22 6
39 23 1
39 24 5
39 25 8
39 26 7
39 27 8
39 28 1
39 29 6
39 30 9
39 31 9
39 32 10
39 33 10
39 34 1
39 35 6
39 36 10
39 37 7
39 38 7
40 0 8
40 1 5
40 2 6
40 3 4
40 4 4
40 5 3
40 6 6
40 7 7
40 8 8
40 9 7
40 10 1
40 11 2
40 12 2
40 13 4
40 14 10
40 15 1
40 16 6
40 17 8
40 18 9
40 19 3
40 20 3
40 21 3
40 22 10
40 23 5
40 24 6
40 25 8
40 26 4
40 27 6
40 28 10
40 29 7
40 30 10
40 31 1
40 32 3
40 33 10
40 34 8
40 35 1
40 36 9
40 37 2
40 38 7
40 39 7
41 0 10
41 1 1
41 2 1
41 3 9
41 4 6
41 5 1
41 6 6
41 7 10
41 8 8
41 9 2
41 10 6
41 11 5
41 12 4
41 13 1
41 14 1
41 15 2
41 16 4
41 17 8
41 18 10
41 19 4
41 20 5
41 21 8
41 22 3
41 23 7
41 24 4
41 25 10
41 26 6
41 27 1
41 28 7
41 29 8
41 30 10
41 31 4
41 32 3
41 33 5
41 34 6
41 35 5
41 36 7
41 37 7
41 38 2
41 39 5
41 40 8
42 0 7
42 1 4
42 2 6
42 3 9
42 4 5
42 5 8
42 6 9
42 7 8
42 8 2
42 9 9
42 10 4
42 11 3
42 12 2
42 13 5
42 14 1
42 15 1
42 16 4
42 17 5
42 18 1
42 19 2
42 20 2
42 21 1
42 22 10
42 23 2
42 24 9
42 25 3
42 26 4
42 27 7
42 28 8
42 29 10
42 30 6
42 31 5
42 32 5
42 33 3
42 34 4
42 35 7
42 36 7
42 37 9
42 38 1
42 39 10
42 40 5
42 41 7
43 0 10
43 1 6
43 2 1
43 3 6
43 4 1
43 5 3
43 6 7
43 7 8
43 8 9
43 9 6
43 10 4
43 11 10
43 12 5
43 13 2
43 14 10
43 15 8
43 16 10
43 17 3
43 18 1
43 19 7
43 20 8
43 21 3
43 22 7
43 23 4
43 24 1
43 25 10
43 26 2
43 27 8
43 28 4
43 29 4
43 30 4
43 31 8
43 32 3
43 33 3
43 34 5
43 35 3
43 36 2
43 37 2
43 38 1
43 39 3
43 40 6
43 41 4
43 42 6
44 0 8
44 1 3
44 2 3
44 3 9
44 4 2
44 5 3
44 6 3
44 7 8
44 8 10
44 9 8
44 10 1
44 11 1
44 12 9
44 13 3
44 14 5
44 15 7
44 16 10
44 17 2
44 18 6
44 19 3
44 20 1
44 21 9
44 22 1
44 23 8
44 24 9
44 25 9
44 26 6
44 27 2
44 28 6
44 29 1
44 30 8
44 31 5
44 32 7
44 33 6
44 34 2
44 35 1
44 36 3
44 37 2
44 38 10
44 39 2
44 40 7
44 41 4
44 42 10
44 43 5
45 0 8
45 1 9
45 2 3
45 3 10
45 4 10
45 5 5
45 6 1
45 7 10
45 8 9
45 9 5
45 10 9
45 11 8
45 12 1
45 13 5
45 14 4
45 15 5
45 16 1
45 17 5
45 18 10
45 19 9
45 20 10
45 21 5
45 22 4
45 23 6
45 24 8
45 25 8
45 26 1
45 27 7
45 28 6
45 29 1
45 30 8
45 31 2
45 32 10
45 33 9
45 34 7
45 35 7
45 36 3
45 37 7
45 38 8
45 39 8
45 40 10
45 41 2
45 42 7
45 43 7
45 44 4
46 0 1
46 1 10
46 2 3
46 3 4
46 4 6
46 5 8
46 6 1
46 7 10
46 8 8
46 9 5
46 10 3
46 11 2
46 12 1
46 13 10
46 14 8
46 15 6
46 16 6
46 17 10
46 18 10
46 19 4
46 20 3
46 21 3
46 22 4
46 23 3
46 24 10
46 25 1
46 26 7
46 27 10
46 28 2
46 29 3
46 30 9
46 31 3
46 32 1
46 33 7
46 34 6
46 35 3
46 36 10
46 37 5
46 38 10
46 39 7
46 40 3
46 41 7
46 42 5
46 43 10
46 44 9
46 45 2
47 0 10
47 1 1
47 2 3
47 3 5
47 4 4
47 5 3
47 6 1
47 7 6
47 8 3
47 9 2
47 10 7
47 11 5
47 12 8
47 13 3
47 14 10
47 15 4
47 16 7
47 17 10
47 18 6
47 19 9
47 20 3
47 21 7
47 22 8
47 23 3
47 24 9
47 25 9
47 26 9
47 27 4
47 28 2
47 29 8
47 30 9
47 31 7
47 32 2
47 33 5
47 34 2
47 35 10
47 36 1
47 37 8
47 38 1
47 39 2
47 40 6
47 41 8
47 42 8
47 43 1
47 44 5
47 45 8
47 46 8
48 0 3
48 1 8
48 2 3
48 3 10
48 4 10
48 5 6
48 6 9
48 7 2
48 8 4
48 9 6
48 10 1
48 11 4
48 12 2
48 13 9
48 14 1
48 15 4
48 16 4
48 17 6
48 18 7
48 19 10
48 20 4
48 21 1
48 22 2
48 23 2
48 24 7
48 25 7
48 26 8
48 27 9
48 28 7
48 29 1
48 30 7
48 31 7
48 32 9
48 33 6
48 34 7
48 35 10
48 36 3
48 37 4
48 38 4
48 39 2
48 40 8
48 41 10
48 42 3
48 43 8
48 44 7
48 45 2
48 46 6
48 47 1
49 0 5
49 1 7
49 2 1
49 3 9
49 4 10
49 5 7
49 6 5
49 7 5
49 8 2
49 9 8
49 10 1
49 11 4
49 12 5
49 13 4
49 14 10
49 15 7
49 16 8
49 17 4
49 18 10
49 19 7
49 20 9
49 21 8
49 22 4
49 23 8
49 24 3
49 25 5
49 26 9
49 27 6
49 28 6
49 29 1
49 30 6
49 31 6
49 32 1
49 33 5
49 34 6
49 35 3
49 36 2
49 37 1
49 38 9
49 39 10
49 40 8
49 41 2
49 42 1
49 43 1
49 44 4
49 45 8
49 46 3
49 47 4
49 48 8
50 0 1
50 1 7
50 2 1
50 3 3
50 4 5
50 5 1
50 6 7
50 7 1
50 8 3
50 9 8
50 10 3
50 11 5
50 12 7
50 13 2
50 14 6
50 15 1
50 16 7
50 17 4
50 18 4
50 19 6
50 20 7
50 21 8
50 22 2
50 23 1
50 24 10
50 25 5
50 26 2
50 27 3
50 28 6
50 29 2
50 30 2
50 31 3
50 32 7
50 33 4
50 34 2
50 35 8
50 36 1
50 37 1
50 38 4
50 39 5
50 40 8
50 41 2
50 42 7
50 43 7
50 44 2
50 45 1
50 46 2
50 47 3
50 48 2
50 49 1
51 0 1
51 1 9
51 2 6
51 3 8
51 4 10
51 5 1
51 6 9
51 7 4
51 8 3
51 9 7
51 10 10
51 11 7
51 12 7
51 13 7
51 14 1
51 15 8
51 16 3
51 17 2
51 18 5
51 19 9
51 20 9
51 21 7
51 22 2
51 23 3
51 24 5
51 25 2
51 26 8
51 27 7
51 28 6
51 29 2
51 30 1
51 31 4
51 32 9
51 33 7
51 34 10
51 35 2
51 36 4
51 37 4
51 38 1
51 39 9
51 40 1
51 41 10
51 42 7
51 43 3
51 44 1
51 45 7
51 46 3
51 47 9
51 48 9
51 49 6
51 50 4
52 0 10
52 1 9
52 2 8
52 3 6
52 4 6
52 5 4
52 6 8
52 7 5
52 8 7
52 9 2
52 10 8
52 11 9
52 12 8
52 13 9
52 14 3
52 15 6
52 16 7
52 17 8
52 18 8
52 19 6
52 20 1
52 21 7
52 22 9
52 23 10
52 24 9
52 25 9
52 26 9
52 27 3
52 28 8
52 29 9
52 30 4
52 31 7
52 32 7
52 33 3
52 34 6
52 35 8
52 36 4
52 37 10
52 38 6
52 39 10
52 40 2
52 41 5
52 42 8
52 43 10
52 44 1
52 45 4
52 46 9
52 47 8
52 48 4
52 49 6
52 50 4
52 51 7
53 0 1
53 1 10
53 2 8
53 3 9
53 4 7
53 5 7
53 6 1
53 7 4
53 8 2
53 9 4
53 10 2
53 11 10
53 12 3
53 13 4
53 14 6
53 15 1
53 16 10
53 17 6
53 18 3
53 19 8
53 20 6
53 21 7
53 22 1
53 23 7
53 24 9
53 25 6
53 26 4
53 27 4
53 28 6
53 29 5
53 30 5
53 31 10
53 32 8
53 33 10
53 34 1
53 35 5
53 36 4
53 37 4
53 38 8
53 39 3
53 40 10
53 41 3
53 42 7
53 43 7
53 44 7
53 45 9
53 46 1
53 47 5
53 48 5
53 49 10
53 50 8
53 51 10
53 52 4
54 0 1
54 1 9
54 2 4
54 3 6
54 4 3
54 5 10
54 6 10
54 7 8
54 8 7
54 9 4
54 10 4
54 11 1
54 12 5
54 13 2
54 14 4
54 15 4
54 16 9
54 17 3
54 18 6
54 19 5
54 20 8
54 21 8
54 22 6
54 23 4
54 24 2
54 25 6
54 26 5
54 27 8
54 28 9
54 29 2
54 30 1
54 31 2
54 32 6
54 33 10
54 34 2
54 35 1
54 36 9
54 37 6
54 38 10
54 39 3
54 40 8
54 41 2
54 42 10
54 43 3
54 44 10
54 45 9
54 46 1
54 47 3
54 48 10
54 49 6
54 50 8
54 51 9
54 52 6
54 53 9
55 0 4
55 1 2
55 2 4
55 3 3
55 4 8
55 5 2
55 6 2
55 7 10
55 8 1
55 9 7
55 10 6
55 11 8
55 12 9
55 13 1
55 14 8
55 15 5
55 16 7
55 17 8
55 18 5
55 19 2
55 20 6
55 21 3
55 22 8
55 23 6
55 24 5
55 25 7
55 26 3
55 27 3
55 28 7
55 29 8
55 30 5
55 31 8
55 32 9
55 33 7
55 34 8
55 35 4
55 36 3
55 37 8
55 38 3
55 39 6
55 40 2
55 41 2
55 42 4
55 43 2
55 44 9
55 45 8
55 46 3
55 47 10
55 48 9
55 49 4
55 50 6
55 51 1
55 52 6
55 53 6
55 54 8
56 0 5
56 1 5
56 2 1
56 3 3
56 4 4
56 5 5
56 6 3
56 7 7
56 8 4
56 9 7
56 10 5
56 11 2
56 12 7
56 13 2
56 14 10
56 15 7
56 16 3
56 17 10
56 18 2
56 19 4
56 20 8
56 21 1
56 22 6
56 23 5
56 24 10
56 25 1
56 26 4
56 27 4
56 28 4
56 29 6
56 30 1
56 31 1
56 32 9
56 33 8
56 34 6
56 35 9
56 36 4
56 37 5
56 38 9
56 39 3
56 40 7
56 41 3
56 42 7
56 43 8
56 44 7
56 45 9
56 46 4
56 47 4
56 48 2
56 49 9
56 50 6
56 51 7
56 52 2
56 53 10
56 54 6
56 55 6
57 0 1
57 1 1
57 2 3
57 3 6
57 4 4
57 5 5
57 6 7
57 7 6
57 8 6
57 9 8
57 10 9
57 11 9
57 12 1
57 13 1
57 14 4
57 15 6
57 16 2
57 17 4
57 18 2
57 19 6
57 20 3
57 21 4
57 22 1
57 23 2
57 24 5
57 25 7
57 26 9
57 27 3
57 28 5
57 29 10
57 30 7
57 31 1
57 32 1
57 33 3
57 34 9
57 35 2
57 36 6
57 37 4
57 38 10
57 39 1
57 40 6
57 41 1
57 42 5
57 43 3
57 44 6
57 45 7
57 46 7
57 47 6
57 48 5
57 49 10
57 50 2
57 51 10
57 52 1
57 53 9
57 54 1
57 55 2
57 56 7
58 0 8
58 1 4
58 2 8
58 3 7
58 4 3
58 5 1
58 6 5
58 7 6
58 8 2
58 9 6
58 10 7
58 11 10
58 12 4
58 13 2
58 14 10
58 15 8
58 16 3
58 17 1
58 18 6
58 19 8
58 20 10
58 21 6
58 22 1
58 23 10
58 24 9
58 25 8
58 26 3
58 27 6
58 28 2
58 29 7
58 30 9
58 31 1
58 32 7
58 33 5
58 34 4
58 35 4
58 36 7
58 37 2
58 38 3
58 39 2
58 40 5
58 41 9
58 42 4
58 43 9
58 44 9
58 45 8
58 46 5
58 47 5
58 48 10
58 49 10
58 50 6
58 51 9
58 52 1
58 53 4
58 54 8
58 55 1
58 56 9
58 57 8
59 0 6
59 1 2
59 2 10
59 3 1
59 4 3
59 5 4
59 6 4
59 7 2
59 8 7
59 9 4
59 10 5
59 11 2
59 12 1
59 13 10
59 14 2
59 15 3
59 16 1
59 17 7
59 18 8
59 19 2
59 20 10
59 21 8
59 22 10
59 23 8
59 24 3
59 25 1
59 26 10
59 27 7
59 28 8
59 29 5
59 30 5
59 31 10
59 32 8
59 33 8
59 34 3
59 35 2
59 36 5
59 37 9
59 38 8
59 39 4
59 40 9
59 41 3
59 42 5
59 43 9
59 44 1
59 45 9
59 46 9
59 47 6
59 48 3
59 49 2
59 50 10
59 51 5
59 52 6
59 53 5
59 54 8
59 55 9
59 56 7
59 57 1
59 58 3
60 0 4
60 1 9
60 2 8
60 3 9
60 4 7
60 5 7
60 6 8
60 7 10
60 8 9
60 9 6
60 10 8
60 11 2
60 12 5
60 13 4
60 14 6
60 15 8
60 16 4
60 17 3
60 18 1
60 19 7
60 20 6
60 21 8
60 22 9
60 23 1
60 24 7
60 25 5
60 26 3
60 27 7
60 28 4
60 29 9
60 30 7
60 31 4
60 32 7
60 33 3
60 34 8
60 35 2
60 36 8
60 37 4
60 38 3
60 39 9
60 40 6
60 41 10
60 42 9
60 43 5
60 44 7
60 45 8
60 46 3
60 47 9
60 48 9
60 49 4
60 50 5
60 51 9
60 52 3
60 53 6
60 54 4
60 55 3
60 56 2
60 57 4
60 58 5
60 59 5
61 0 8
61 1 9
61 2 2
61 3 9
61 4 7
61 5 3
61 6 10
61 7 5
61 8 6
61 9 8
61 10 6
61 11 7
61 12 4
61 13 9
61 14 9
61 15 7
61 16 2
61 17 6
61 18 2
61 19 4
61 20 6
61 21 6
61 22 1
61 23 9
61 24 4
61 25 9
61 26 1
61 27 3
61 28 3
61 29 10
61 30 2
61 31 8
61 32 8
61 33 4
61 34 3
61 35 9
61 36 9
61 37 9
61 38 8
61 39 8
61 40 10
61 41 10
61 42 4
61 43 8
61 44 9
61 45 3
61 46 6
61 47 4
61 48 2
61 49 8
61 50 3
61 51 9
61 52 9
61 53 5
61 54 4
61 55 6
61 56 7
61 57 4
61 58 10
61 59 3
61 60 3
62 0 9
62 1 6
62 2 5
62 3 1
62 4 10
62 5 5
62 6 7
62 7 2
62 8 8
62 9 3
62 10 1
62 11 9
62 12 5
62 13 4
62 14 2
62 15 1
62 16 10
62 17 7
62 18 1
62 19 5
62 20 10
62 21 6
62 22 10
62 23 7
62 24 1
62 25 8
62 26 6
62 27 5
62 28 3
62 29 10
62 30 7
62 31 2
62 32 9
62 33 4
62 34 2
62 35 7
62 36 8
62 37 4
62 38 10
62 39 10
62 40 10
62 41 1
62 42 9
62 43 7
62 44 1
62 45 6
62 46 5
62 47 2
62 48 6
62 49 7
62 50 6
62 51 6
62 52 6
62 53 7
62 54 3
62 55 1
62 56 7
62 57 9
62 58 5
62 59 10
62 60 1
62 61 2
63 0 3
63 1 1
63 2 6
63 3 9
63 4 3
63 5 5
63 6 5
63 7 9
63 8 2
63 9 7
63 10 4
63 11 5
63 12 6
63 13 6
63 14 7
63 15 9
63 16 5
63 17 7
63 18 8
63 19 10
63 20 5
63 21 7
63 22 8
63 23 1
63 24 1
63 25 6
63 26 5
63 27 3
63 28 8
63 29 6
63 30 9
63 31 6
63 32 9
63 33 4
63 34 2
63 35 1
63 36 9
63 37 8
63 38 2
63 39 2
63 40 1
63 41 9
63 42 7
63 43 1
63 44 9
63 45 1
63 46 10
63 47 1
63 48 8
63 49 3
63 50 4
63 51 3
63 52 6
63 53 3
63 54 6
63 55 8
63 56 5
63 57 4
63 58 3
63 59 3
63 60 9
63 61 7
63 62 9
64 0 2
64 1 5
64 2 5
64 3 9
64 4 4
64 5 7
64 6 6
64 7 4
64 8 5
64 9 10
64 10 4
64 11 6
64 12 8
64 13 2
64 14 3
64 15 2
64 16 9
64 17 8
64 18 6
64 19 10
64 20 3
64 21 2
64 22 4
64 23 2
64 24 4
64 25 10
64 26 1
64 27 2
64 28 2
64 29 5
64 30 3
64 31 5
64 32 4
64 33 9
64 34 6
64 35 1
64 36 3
64 37 9
64 38 8
64 39 9
64 40 1
64 41 6
64 42 9
64 43 2
64 44 8
64 45 1
64 46 4
64 47 8
64 48 6
64 49 4
64 50 1
64 51 10
64 52 8
64 53 5
64 54 3
64 55 8
64 56 1
64 57 9
64 58 1
64 59 9
64 60 9
64 61 2
64 62 6
64 63 1
